TIP.Original.Linear/tip2015_weird_nat_add3_rrot.smt2
(set-logic HORN)
(declare-datatypes ((Nat_176 0)) (((zero_9 ) (succ_9 (p_27 Nat_176)))))
(declare-fun diseqNat_176 (Nat_176 Nat_176) Bool)
(declare-fun p_28 (Nat_176 Nat_176) Bool)
(declare-fun iszero_9 (Nat_176) Bool)
(declare-fun issucc_9 (Nat_176) Bool)
(assert (forall ((x_9376 Nat_176))
	(p_28 x_9376 (succ_9 x_9376))))
(assert (iszero_9 zero_9))
(assert (forall ((x_9378 Nat_176))
	(issucc_9 (succ_9 x_9378))))
(assert (forall ((x_9379 Nat_176))
	(diseqNat_176 zero_9 (succ_9 x_9379))))
(assert (forall ((x_9380 Nat_176))
	(diseqNat_176 (succ_9 x_9380) zero_9)))
(assert (forall ((x_9381 Nat_176) (x_9382 Nat_176))
	(=> (diseqNat_176 x_9381 x_9382)
	    (diseqNat_176 (succ_9 x_9381) (succ_9 x_9382)))))
(declare-fun plus_7 (Nat_176 Nat_176 Nat_176) Bool)
(assert (forall ((x_9355 Nat_176) (z_498 Nat_176) (y_427 Nat_176))
	(=> (plus_7 x_9355 z_498 y_427)
	    (plus_7 (succ_9 x_9355) (succ_9 z_498) y_427))))
(assert (forall ((x_9356 Nat_176))
	(plus_7 x_9356 zero_9 x_9356)))
(declare-fun add_94 (Nat_176 Nat_176 Nat_176 Nat_176) Bool)
(assert (forall ((x_9357 Nat_176) (x_9358 Nat_176) (x_9347 Nat_176) (y_428 Nat_176) (z_499 Nat_176))
	(=>	(and (add_94 x_9358 x_9347 y_428 z_499)
			(plus_7 x_9357 (succ_9 zero_9) x_9358))
		(add_94 x_9357 (succ_9 x_9347) y_428 z_499))))
(assert (forall ((x_9360 Nat_176) (x_9361 Nat_176) (x_9348 Nat_176) (z_499 Nat_176))
	(=>	(and (add_94 x_9361 zero_9 x_9348 z_499)
			(plus_7 x_9360 (succ_9 zero_9) x_9361))
		(add_94 x_9360 zero_9 (succ_9 x_9348) z_499))))
(assert (forall ((x_9363 Nat_176))
	(add_94 x_9363 zero_9 zero_9 x_9363)))
(assert (forall ((x_9364 Nat_176) (x_9365 Nat_176) (x_9349 Nat_176) (y_429 Nat_176) (z_500 Nat_176))
	(=>	(and true
			(diseqNat_176 x_9364 x_9365)
			(add_94 x_9364 x_9349 y_429 z_500)
			(add_94 x_9365 z_500 x_9349 y_429))
		false)))
(assert (forall ((x_9366 Nat_176) (x_9367 Nat_176) (x_9368 Nat_176) (x_9369 Nat_176) (x_9350 Nat_176) (y_430 Nat_176) (z_501 Nat_176))
	(=>	(and true
			(diseqNat_176 x_9367 x_9369)
			(plus_7 x_9366 y_430 z_501)
			(plus_7 x_9367 x_9350 x_9366)
			(plus_7 x_9368 x_9350 y_430)
			(plus_7 x_9369 x_9368 z_501))
		false)))
(assert (forall ((x_9370 Nat_176) (x_9371 Nat_176) (x_9351 Nat_176) (y_431 Nat_176))
	(=>	(and true
			(diseqNat_176 x_9370 x_9371)
			(plus_7 x_9370 x_9351 y_431)
			(plus_7 x_9371 y_431 x_9351))
		false)))
(assert (forall ((x_9372 Nat_176) (x_9352 Nat_176))
	(=>	(and true
			(diseqNat_176 x_9372 x_9352)
			(plus_7 x_9372 x_9352 zero_9))
		false)))
(assert (forall ((x_9373 Nat_176) (x_9353 Nat_176))
	(=>	(and true
			(diseqNat_176 x_9373 x_9353)
			(plus_7 x_9373 zero_9 x_9353))
		false)))
(check-sat)
